# Objective value = 2.9749689484504938e+02
x[0] 0
x[1] 0
x[2] 0
x[3] 0
x[4] 1
x[5] 1
x[6] 1
x[7] 1
x[8] 0
x[9] 0
x[10] 0
x[11] 0
x[12] 1
x[13] 1
x[14] 0
x[15] 1
x[16] 0
x[17] 1
x[18] 0
x[19] 1
x[20] 0
x[21] 1
x[22] 1
x[23] 0
x[24] 1
x[25] 0
x[26] 0
x[27] 1
x[28] 0
x[29] 1
x[30] 1
x[31] 0
x[32] 1
x[33] 0
x[34] 0
x[35] 1
x[36] 1
x[37] 0
x[38] 0
x[39] 1
x[40] 1
x[41] 1
x[42] 1
x[43] 1
x[44] 0
x[45] 0
x[46] 0
x[47] 0
x[48] 0
x[49] 1
x[50] 1
x[51] 0
x[52] 0
x[53] 0
x[54] 0
x[55] 0
x[56] 1
x[57] 1
x[58] 1
x[59] 1
x[60] 1
x[61] 1
x[62] 1
x[63] 0
x[64] 0
x[65] 0
x[66] 0
x[67] 0
x[68] 1
x[69] 1
x[70] 0
x[71] 1
x[72] 1
x[73] 1
x[74] 1
x[75] 0
x[76] 1
x[77] 0
x[78] 0
x[79] 1
x[80] 0
x[81] 1
x[82] 1
x[83] 1
x[84] 0
x[85] 1
x[86] 0
x[87] 0
x[88] 1
x[89] 0
x[90] 1
x[91] 1
x[92] 1
x[93] 0
x[94] 1
x[95] 0
x[96] 0
x[97] 0
x[98] 0
x[99] 1
x[100] 1
x[101] 0
x[102] 0
x[103] 0
x[104] 0
x[105] 1
x[106] 0
x[107] 0
x[108] 1
x[109] 1
x[110] 0
x[111] 1
x[112] 0
x[113] 0
x[114] 1
x[115] 1
x[116] 0
x[117] 1
x[118] 0
x[119] 1
x[120] 1
x[121] 1
x[122] 1
x[123] 0
x[124] 0
x[125] 0
x[126] 1
x[127] 0
x[128] 0
x[129] 1
x[130] 1
x[131] 0
x[132] 1
x[133] 1
x[134] 0
x[135] 1
x[136] 0
x[137] 0
x[138] 1
x[139] 0
x[140] 1
x[141] 1
x[142] 0
x[143] 1
x[144] 0
x[145] 1
x[146] 1
x[147] 1
x[148] 1
x[149] 0
x[150] 0
x[151] 0
x[152] 0
x[153] 1
x[154] 1
x[155] 0
x[156] 1
x[157] 0
x[158] 1
x[159] 1
x[160] 0
x[161] 1
x[162] 1
x[163] 0
x[164] 1
x[165] 0
x[166] 0
x[167] 1
x[168] 1
x[169] 1
x[170] 1
x[171] 0
x[172] 0
x[173] 1
x[174] 0
x[175] 1
x[176] 1
x[177] 0
x[178] 1
x[179] 1
x[180] 1
x[181] 1
x[182] 1
x[183] 0
x[184] 0
x[185] 0
x[186] 0
x[187] 1
x[188] 1
x[189] 0
x[190] 0
x[191] 0
x[192] 0
x[193] 1
x[194] 0
x[195] 1
x[196] 1
x[197] 0
x[198] 0
x[199] 0
x[200] 1
x[201] 0
x[202] 1
x[203] 0
x[204] 1
x[205] 0
x[206] 0
x[207] 0
x[208] 0
x[209] 0
x[210] 1
x[211] 0
x[212] 1
x[213] 0
x[214] 0
x[215] 0
x[216] 0
x[217] 1
x[218] 0
x[219] 0
x[220] 0
x[221] 0
x[222] 0
x[223] 0
x[224] 0
x[225] 1
x[226] 0
x[227] 0
x[228] 1
x[229] 1
x[230] 1
x[231] 1
x[232] 1
x[233] 0
x[234] 1
x[235] 0
x[236] 1
x[237] 0
x[238] 1
x[239] 1
x[240] 1
x[241] 0
x[242] 1
x[243] 0
x[244] 0
x[245] 0
x[246] 0
x[247] 0
x[248] 0
x[249] 1
x[250] 0
x[251] 1
x[252] 0
x[253] 1
x[254] 1
x[255] 0
x[256] 0
x[257] 0
x[258] 0
x[259] 0
x[260] 0
x[261] 1
x[262] 1
x[263] 1
x[264] 0
x[265] 0
x[266] 0
x[267] 0
x[268] 0
x[269] 1
x[270] 1
x[271] 1
x[272] 0
x[273] 1
x[274] 0
x[275] 0
x[276] 0
x[277] 0
x[278] 1
x[279] 1
x[280] 1
x[281] 0
x[282] 1
x[283] 1
x[284] 0
x[285] 0
x[286] 1
x[287] 1
x[288] 0
x[289] 0
x[290] 1
x[291] 0
x[292] 1
x[293] 1
x[294] 0
x[295] 1
x[296] 1
x[297] 0
x[298] 1
x[299] 1
x[300] 1
x[301] 1
x[302] 0
x[303] 0
x[304] 0
x[305] 0
x[306] 0
x[307] 1
x[308] 0
x[309] 0
x[310] 1
x[311] 1
x[312] 0
x[313] 1
x[314] 1
x[315] 0
x[316] 0
x[317] 1
x[318] 0
x[319] 0
x[320] 0
x[321] 1
x[322] 1
x[323] 0
x[324] 0
x[325] 0
x[326] 1
x[327] 1
x[328] 0
x[329] 1
x[330] 0
x[331] 1
x[332] 1
x[333] 1
x[334] 0
x[335] 0
x[336] 1
x[337] 0
x[338] 0
x[339] 0
x[340] 1
x[341] 1
x[342] 0
x[343] 0
x[344] 1
x[345] 1
x[346] 0
x[347] 0
x[348] 1
x[349] 0
x[350] 1
x[351] 1
x[352] 0
x[353] 0
x[354] 1
x[355] 0
x[356] 1
x[357] 1
x[358] 0
x[359] 0
x[360] 0
x[361] 1
x[362] 1
x[363] 1
x[364] 0
x[365] 1
x[366] 0
x[367] 0
x[368] 0
x[369] 1
x[370] 1
x[371] 0
x[372] 0
x[373] 0
x[374] 1
x[375] 0
x[376] 1
x[377] 1
x[378] 1
x[379] 0
x[380] 0
x[381] 0
x[382] 1
x[383] 0
x[384] 1
x[385] 0
x[386] 0
x[387] 1
x[388] 1
x[389] 0
x[390] 0
x[391] 0
x[392] 1
x[393] 0
x[394] 0
x[395] 1
x[396] 1
x[397] 0
x[398] 0
x[399] 0
x[400] 0
x[401] 1
x[402] 1
x[403] 0
x[404] 1
x[405] 1
x[406] 1
x[407] 1
x[408] 0
x[409] 1
x[410] 0
x[411] 0
x[412] 1
x[413] 0
x[414] 0
x[415] 0
x[416] 0
x[417] 1
x[418] 1
x[419] 0
x[420] 1
x[421] 0
x[422] 1
x[423] 1
x[424] 0
x[425] 0
x[426] 0
x[427] 1
x[428] 1
x[429] 1
x[430] 1
x[431] 0
x[432] 1
x[433] 0
x[434] 0
x[435] 1
x[436] 0
x[437] 0
x[438] 1
x[439] 0
x[440] 1
x[441] 1
x[442] 0
x[443] 1
x[444] 1
x[445] 1
x[446] 0
x[447] 1
x[448] 1
x[449] 0
x[450] 0
x[451] 1
x[452] 1
x[453] 1
x[454] 0
x[455] 0
x[456] 0
x[457] 0
x[458] 1
x[459] 1
x[460] 1
x[461] 0
x[462] 0
x[463] 1
x[464] 0
x[465] 0
x[466] 1
x[467] 0
x[468] 0
x[469] 1
x[470] 0
x[471] 1
x[472] 0
x[473] 1
x[474] 0
x[475] 0
x[476] 0
x[477] 1
x[478] 1
x[479] 0
x[480] 0
x[481] 1
x[482] 0
x[483] 1
x[484] 0
x[485] 0
x[486] 0
x[487] 1
x[488] 0
x[489] 0
x[490] 1
x[491] 1
x[492] 0
x[493] 0
x[494] 1
x[495] 1
x[496] 0
x[497] 0
x[498] 0
x[499] 1
x[500] 1
x[501] 1
x[502] 0
x[503] 0
x[504] 0
x[505] 0
x[506] 1
x[507] 0
x[508] 0
x[509] 0
x[510] 0
x[511] 0
x[512] 0
x[513] 1
x[514] 1
x[515] 1
x[516] 1
x[517] 1
x[518] 0
x[519] 1
x[520] 0
x[521] 0
x[522] 1
x[523] 1
x[524] 0
x[525] 1
x[526] 0
x[527] 0
x[528] 1
x[529] 0
x[530] 1
x[531] 0
x[532] 0
x[533] 0
x[534] 1
x[535] 0
x[536] 1
x[537] 0
x[538] 0
x[539] 1
x[540] 0
x[541] 1
x[542] 1
x[543] 1
x[544] 1
x[545] 0
x[546] 0
x[547] 1
x[548] 1
x[549] 0
x[550] 1
x[551] 0
x[552] 0
x[553] 1
x[554] 0
x[555] 1
x[556] 1
x[557] 0
x[558] 1
x[559] 0
x[560] 0
x[561] 1
x[562] 0
x[563] 0
x[564] 0
x[565] 1
x[566] 0
x[567] 1
x[568] 0
x[569] 0
x[570] 0
x[571] 0
x[572] 0
x[573] 1
x[574] 1
x[575] 1
x[576] 0
x[577] 1
x[578] 0
x[579] 0
x[580] 1
x[581] 0
x[582] 0
x[583] 0
x[584] 0
x[585] 0
x[586] 0
x[587] 1
x[588] 0
x[589] 0
x[590] 0
x[591] 1
x[592] 0
x[593] 1
x[594] 0
x[595] 0
x[596] 0
x[597] 1
x[598] 1
x[599] 1
x[600] 0
x[601] 1
x[602] 0
x[603] 0
x[604] 0
x[605] 1
x[606] 1
x[607] 1
x[608] 0
x[609] 0
x[610] 0
x[611] 1
x[612] 1
x[613] 0
x[614] 0
x[615] 0
x[616] 1
x[617] 0
x[618] 1
x[619] 0
x[620] 0
x[621] 1
x[622] 1
x[623] 0
x[624] 0
x[625] 1
x[626] 0
x[627] 1
x[628] 0
x[629] 0
x[630] 0
x[631] 0
x[632] 1
x[633] 1
x[634] 0
x[635] 1
x[636] 0
x[637] 1
x[638] 1
x[639] 1
x[640] 0
x[641] 1
x[642] 1
x[643] 1
x[644] 1
x[645] 1
x[646] 0
x[647] 0
x[648] 0
x[649] 0
x[650] 0
x[651] 0
x[652] 1
x[653] 1
x[654] 0
x[655] 1
x[656] 0
x[657] 1
x[658] 0
x[659] 0
x[660] 0
x[661] 1
x[662] 0
x[663] 1
x[664] 0
x[665] 0
x[666] 0
x[667] 0
x[668] 0
x[669] 0
x[670] 1
x[671] 0
x[672] 0
x[673] 1
x[674] 1
x[675] 0
x[676] 1
x[677] 0
x[678] 1
x[679] 1
x[680] 0
x[681] 1
x[682] 1
x[683] 1
x[684] 1
x[685] 1
x[686] 1
x[687] 1
x[688] 0
x[689] 0
x[690] 0
x[691] 1
x[692] 0
x[693] 1
x[694] 1
x[695] 0
x[696] 1
x[697] 0
x[698] 1
x[699] 1
x[700] 1
x[701] 0
x[702] 0
x[703] 1
x[704] 0
x[705] 1
x[706] 0
x[707] 1
x[708] 1
x[709] 0
x[710] 1
x[711] 0
x[712] 0
x[713] 1
x[714] 1
x[715] 0
x[716] 0
x[717] 0
x[718] 0
x[719] 0
x[720] 0
x[721] 1
x[722] 0
x[723] 1
x[724] 1
x[725] 0
x[726] 0
x[727] 0
x[728] 0
x[729] 0
x[730] 0
x[731] 0
x[732] 0
x[733] 1
x[734] 0
x[735] 1
x[736] 1
x[737] 0
x[738] 0
x[739] 0
x[740] 1
x[741] 1
x[742] 0
x[743] 1
x[744] 1
x[745] 0
x[746] 0
x[747] 0
x[748] 0
x[749] 0
x[750] 1
x[751] 1
x[752] 1
x[753] 0
x[754] 1
x[755] 1
x[756] 1
x[757] 1
x[758] 0
x[759] 1
x[760] 1
x[761] 1
x[762] 0
x[763] 0
x[764] 1
x[765] 1
x[766] 1
x[767] 1
x[768] 0
x[769] 0
x[770] 0
x[771] 1
x[772] 0
x[773] 0
x[774] 1
x[775] 0
x[776] 0
x[777] 1
x[778] 0
x[779] 0
x[780] 1
x[781] 0
x[782] 0
x[783] 0
x[784] 1
x[785] 0
x[786] 0
x[787] 1
x[788] 0
x[789] 1
x[790] 1
x[791] 1
x[792] 0
x[793] 0
x[794] 1
x[795] 0
x[796] 1
x[797] 0
x[798] 1
x[799] 1
x[800] 0
x[801] 0
x[802] 1
x[803] 0
x[804] 1
x[805] 0
x[806] 0
x[807] 1
x[808] 0
x[809] 1
x[810] 0
x[811] 0
x[812] 1
x[813] 0
x[814] 1
x[815] 0
x[816] 0
x[817] 1
x[818] 1
x[819] 1
x[820] 0
x[821] 1
x[822] 1
x[823] 1
x[824] 0
x[825] 0
x[826] 0
x[827] 0
x[828] 1
x[829] 0
x[830] 1
x[831] 0
x[832] 1
x[833] 0
x[834] 1
x[835] 0
x[836] 0
x[837] 1
x[838] 0
x[839] 1
x[840] 1
x[841] 1
x[842] 1
x[843] 1
x[844] 1
x[845] 1
x[846] 0
x[847] 1
x[848] 1
x[849] 0
x[850] 1
x[851] 0
x[852] 1
x[853] 0
x[854] 1
x[855] 0
x[856] 0
x[857] 0
x[858] 1
x[859] 1
x[860] 0
x[861] 0
x[862] 1
x[863] 0
x[864] 1
x[865] 1
x[866] 0
x[867] 1
x[868] 1
x[869] 0
x[870] 1
x[871] 1
x[872] 1
x[873] 1
x[874] 0
x[875] 1
x[876] 0
x[877] 0
x[878] 1
x[879] 0
x[880] 0
x[881] 0
x[882] 1
x[883] 1
x[884] 1
x[885] 1
x[886] 0
x[887] 1
x[888] 1
x[889] 0
x[890] 1
x[891] 0
x[892] 1
x[893] 0
x[894] 1
x[895] 1
x[896] 0
x[897] 0
x[898] 1
x[899] 1
x[900] 0
x[901] 1
x[902] 0
x[903] 0
x[904] 1
x[905] 1
x[906] 1
x[907] 0
x[908] 1
x[909] 0
x[910] 1
x[911] 0
x[912] 1
x[913] 1
x[914] 0
x[915] 1
x[916] 1
x[917] 0
x[918] 0
x[919] 0
x[920] 0
x[921] 0
x[922] 0
x[923] 0
x[924] 0
x[925] 0
x[926] 0
x[927] 1
x[928] 0
x[929] 0
x[930] 0
x[931] 0
x[932] 0
x[933] 0
x[934] 0
x[935] 1
x[936] 1
x[937] 1
x[938] 1
x[939] 1
x[940] 1
x[941] 1
x[942] 0
x[943] 0
x[944] 0
x[945] 1
x[946] 1
x[947] 1
x[948] 1
x[949] 1
x[950] 1
x[951] 1
x[952] 1
x[953] 0
x[954] 1
x[955] 1
x[956] 1
x[957] 1
x[958] 0
x[959] 1
x[960] 0
x[961] 1
x[962] 0
x[963] 1
x[964] 1
x[965] 0
x[966] 1
x[967] 0
x[968] 1
x[969] 1
x[970] 1
x[971] 0
x[972] 1
x[973] 0
x[974] 1
x[975] 0
x[976] 1
x[977] 1
x[978] 0
x[979] 1
x[980] 0
x[981] 0
x[982] 0
x[983] 1
x[984] 0
x[985] 0
x[986] 1
x[987] 0
x[988] 0
x[989] 0
x[990] 0
x[991] 1
x[992] 0
x[993] 0
x[994] 0
x[995] 1
x[996] 0
x[997] 1
x[998] 1
x[999] 1
